; Weird functions over natural numbers
;
; Property about trinary addition function
(declare-datatypes () ((Nat (zero) (succ (p Nat)))))
(define-fun-rec
  plus
    ((x Nat) (y Nat)) Nat
    (match x
      (case zero y)
      (case (succ z) (succ (plus z y)))))
(define-fun-rec
  add3
    ((x Nat) (y Nat) (z Nat)) Nat
    (match x
      (case zero
        (match y
          (case zero z)
          (case (succ x3) (plus (succ zero) (add3 zero x3 z)))))
      (case (succ x2) (plus (succ zero) (add3 x2 y z)))))
(prove
  (forall ((x Nat) (y Nat) (z Nat)) (= (add3 x y z) (add3 z x y))))
(assert
  (forall ((x Nat) (y Nat) (z Nat))
    (= (plus x (plus y z)) (plus (plus x y) z))))
(assert (forall ((x Nat) (y Nat)) (= (plus x y) (plus y x))))
(assert (forall ((x Nat)) (= (plus x zero) x)))
(assert (forall ((x Nat)) (= (plus zero x) x)))
